Minimize
 obj: - 19 x_0_0 - 19 x_0_1 - 19 x_1_0 - 19 x_1_1 - 17 x_2_0 - 17 x_2_1 
 - 17 x_3_0 - 17 x_3_1 - 19 x_4_0 - 19 x_4_1 - 19 x_5_0 - 19 x_5_1 - 17 x_6_0 
 - 17 x_6_1 - 17 x_7_0 - 17 x_7_1 

Subject To 
 ohc_item_0: + 1 x_0_0 + 1 x_0_1 + 1 x_0_2  = 1.0
 ohc_item_1: + 1 x_1_0 + 1 x_1_1 + 1 x_1_2  = 1.0
 ohc_item_2: + 1 x_2_0 + 1 x_2_1 + 1 x_2_2  = 1.0
 ohc_item_3: + 1 x_3_0 + 1 x_3_1 + 1 x_3_2  = 1.0
 ohc_item_4: + 1 x_4_0 + 1 x_4_1 + 1 x_4_2  = 1.0
 ohc_item_5: + 1 x_5_0 + 1 x_5_1 + 1 x_5_2  = 1.0
 ohc_item_6: + 1 x_6_0 + 1 x_6_1 + 1 x_6_2  = 1.0
 ohc_item_7: + 1 x_7_0 + 1 x_7_1 + 1 x_7_2  = 1.0
 knapsack_0: + 6 x_0_0 + 6 x_1_0 + 3 x_2_0 + 7 x_3_0 + 6 x_4_0 + 6 x_5_0 
 + 3 x_6_0 + 7 x_7_0  <= 10.0
 knapsack_1: + 6 x_0_1 + 6 x_1_1 + 3 x_2_1 + 7 x_3_1 + 6 x_4_1 + 6 x_5_1 
 + 3 x_6_1 + 7 x_7_1  <= 10.0

Bounds

Binary
 x_0_0 x_0_1 x_1_0 x_1_1 x_2_0 x_2_1 x_3_0 x_3_1 x_4_0 x_4_1 x_5_0 x_5_1 x_6_0
  x_6_1 x_7_0 x_7_1 x_0_2 x_1_2 x_2_2 x_3_2 x_4_2 x_5_2 x_6_2 x_7_2
General

End